NAME: concorde91
TYPE: TSP
DIMENSION: 25 
EDGE_WEIGHT_TYPE: EUC_2D
NODE_COORD_SECTION
1 76 51
2 58 14
3 46 24
4 35 72
5 38 30
6 20 51
7 14 28
8 39 36
9 26 44
10 71 81
11 41 52
12 26 70
13 40 85
14 19 85
15 83 39
16 53 15
17 39 64
18 57 29
19 98 93
20 65 15
21 33 97
22 33 0
23 95 71
24 38 63
25 56 78
